NAME : XML100_3121_21
DIMENSION : 101
NB_CLUSTERS : 5
CLUSTERING_ALG : KMeans
CLUSTERING_PARAMS : k(4)
CLUSTERS
1 0
2 3 5 14 15 16 17 21 24 29 43 45 50 54 55 59 62 66 70 91 99
3 2 8 13 18 19 20 22 26 32 37 38 39 47 53 64 67 72 73 75 76 79 81 82 88 89 92 96 97
4 4 6 7 9 11 12 25 33 34 35 36 46 56 57 60 63 74 77 80 84 86 98
5 1 10 23 27 28 30 31 40 41 42 44 48 49 51 52 58 61 65 68 69 71 78 83 85 87 90 93 94 95 100
EOF